c WARNING: for repeatability, setting FPU to use double precision
d VARIABLES            226176       
d CONSTRAINTS          986791       
c ============================[ Problem Statistics ]=============================
c |                                                                             |
c |  Number of variables:        226176                                         |
c |  Number of clauses:          986791                                         |
c |  Parse time:                   0.16 s                                       |
c |                                                                             |
c ============================[ Search Statistics ]==============================
c | Conflicts |          ORIGINAL         |          LEARNT          | Progress |
c |           |    Vars  Clauses Literals |    Limit  Clauses Lit/Cl |          |
c ===============================================================================
c |       100 |  187524   887161  2150105 |   325292      100      9 | 17.089 % |
c |       250 |  187524   887161  2150105 |   357821      250     11 | 17.089 % |
c |       475 |  187524   887161  2150105 |   393603      475     17 | 17.089 % |
c |       812 |  187524   887161  2150105 |   432964      812     37 | 17.089 % |
c |      1318 |  187524   887161  2150105 |   476260     1318     73 | 17.089 % |
c |      2077 |  187524   887161  2150105 |   523886     2077     63 | 17.089 % |
c |      3216 |  187524   887161  2150105 |   576275     3216     73 | 17.089 % |
c |      4924 |  187524   887161  2150105 |   633902     4924     82 | 17.089 % |
c |      7486 |  187524   887161  2150105 |   697293     7486     83 | 17.089 % |
c |     11330 |  187524   887161  2150105 |   767022    11330     97 | 17.089 % |
c |     17096 |  187524   887161  2150105 |   843724    17096    114 | 17.089 % |
c ===============================================================================
c restarts              : 93
c conflicts             : 25522          (1913 /sec)
c decisions             : 190685         (0.00 % random) (14289 /sec)
c propagations          : 73238622       (5488163 /sec)
c conflict literals     : 3113083        (10.50 % deleted)
d RESTARTS             93
d FAILURES             25522        
d NODES                190685       
d BACKTRACKS           190685       
d PROPAGATIONS         73238622     
d NOGOODSIZE           121.98 
d MEMORY               94.00 
d TIME                 13.3448 

s SATISFIABLE
